68615.0
1707
2 3 8 9 11 12 13 14 15 16 17 18 19 20 22 23 24 26 27 31 33 35 36 37 38 39 40 41 43 45 46 47 49 50 51 53 55 56 58 59 60 61 62 63 64 65 66 67 68 69 70 71 72 75 76 77 78 79 81 83 84 86 91 93 96 98 99 